Normalized Data/p02_7090_tsplib0_normalized_split0.vrp
NAME:p02_7090_tsplib0_NORMALIZED_split
BEST_KNOWN: 0
COMMENT: 0
DIMENSION: 473
CAPACITY: 100
EDGE_WEIGHT_FORMAT: FUNCTION
EDGE_WEIGHT_TYPE: EXACT_2D
NODE_COORD_SECTION
1 0.00000 0.00000
2 -18 -18
3 -18 -18
4 -18 -18
5 -18 -18
6 -18 -18
7 -18 -18
8 -4 -14
9 -4 -14
10 -4 -14
11 -4 -14
12 -4 -14
13 -4 -14
14 -4 -14
15 -19 5
16 -19 5
17 -19 5
18 -19 5
19 -19 5
20 -19 5
21 -19 5
22 -19 5
23 5 -5
24 5 -5
25 5 -5
26 5 -5
27 15 -20
28 15 -20
29 15 -20
30 15 -20
31 15 -20
32 15 -20
33 15 -20
34 -7 -6
35 -7 -6
36 -7 -6
37 -7 -6
38 -7 -6
39 -7 -6
40 -7 -6
41 10 10
42 10 10
43 10 10
44 10 10
45 10 10
46 10 10
47 10 10
48 10 10
49 10 10
50 15 5
51 15 5
52 15 5
53 15 5
54 15 5
55 15 5
56 -14 19
57 -14 19
58 -14 19
59 -14 19
60 -14 19
61 -14 19
62 -14 19
63 0 26
64 0 26
65 0 26
66 0 26
67 15 25
68 15 25
69 15 25
70 15 25
71 15 25
72 -5 11
73 -5 11
74 -5 11
75 -5 11
76 -5 11
77 -5 11
78 -5 11
79 22 -5
80 22 -5
81 22 -5
82 22 -5
83 22 -5
84 22 -5
85 22 -5
86 22 -5
87 22 -5
88 22 17
89 22 17
90 22 17
91 22 17
92 22 -16
93 22 -16
94 22 -16
95 22 -16
96 22 -16
97 22 -16
98 22 -16
99 -19 -4
100 -19 -4
101 -19 -4
102 -19 -4
103 -19 -4
104 -7 4
105 -7 4
106 -7 4
107 -7 4
108 -7 4
109 -31 16
110 -31 16
111 -31 16
112 -31 16
113 22 8
114 22 8
115 22 8
116 22 8
117 22 8
118 22 8
119 26 -26
120 26 -26
121 26 -26
122 26 -26
123 4 -27
124 4 -27
125 4 -27
126 4 -27
127 4 -27
128 -14 -27
129 -14 -27
130 -14 -27
131 -14 -27
132 -14 -27
133 -14 -27
134 -29 -12
135 -29 -12
136 -29 -12
137 -29 -12
138 -29 -12
139 -29 -12
140 -33 3
141 -33 3
142 -33 3
143 -33 3
144 -33 3
145 -23 24
146 -23 24
147 -23 24
148 -23 24
149 -23 24
150 1 6
151 1 6
152 1 6
153 1 6
154 1 6
155 1 6
156 1 6
157 1 6
158 15 -6
159 15 -6
160 15 -6
161 15 -6
162 -5 -24
163 -5 -24
164 -5 -24
165 -5 -24
166 -5 -24
167 12 -14
168 12 -14
169 12 -14
170 12 -14
171 12 -14
172 12 -14
173 3 -14
174 3 -14
175 3 -14
176 3 -14
177 3 -14
178 -9 36
179 -9 36
180 -9 36
181 -9 36
182 -9 36
183 -9 36
184 -18 13
185 -18 13
186 -18 13
187 -18 13
188 -18 13
189 -14 -11
190 -14 -11
191 -14 -11
192 -14 -11
193 -14 -11
194 -14 -11
195 10 0
196 10 0
197 10 0
198 10 0
199 10 0
200 10 0
201 10 0
202 10 0
203 15 10
204 15 10
205 15 10
206 15 10
207 15 10
208 15 10
209 14 -30
210 14 -30
211 14 -30
212 14 -30
213 14 -30
214 14 -30
215 14 -30
216 14 -30
217 14 -30
218 20 -25
219 20 -25
220 20 -25
221 20 -25
222 20 -25
223 7 26
224 7 26
225 7 26
226 7 26
227 7 26
228 7 26
229 7 26
230 7 26
231 7 26
232 -10 20
233 -10 20
234 -10 20
235 -10 20
236 -10 20
237 -10 20
238 -10 20
239 -10 20
240 -10 20
241 -10 10
242 -10 10
243 -10 10
244 -10 10
245 -10 10
246 -10 10
247 -28 -23
248 -28 -23
249 -28 -23
250 -28 -23
251 -28 -23
252 -28 -23
253 -28 -23
254 -25 -26
255 -25 -26
256 -25 -26
257 -25 -26
258 -24 -21
259 -24 -21
260 -24 -21
261 -24 -21
262 -24 -21
263 -24 -21
264 -19 8
265 -19 8
266 -19 8
267 -19 8
268 -19 8
269 -19 8
270 10 -10
271 10 -10
272 10 -10
273 10 -10
274 10 -10
275 10 -10
276 10 -10
277 11 2
278 11 2
279 11 2
280 11 2
281 11 2
282 10 -25
283 10 -25
284 10 -25
285 10 -25
286 10 -25
287 10 -25
288 10 -25
289 10 -25
290 10 -25
291 8 -19
292 8 -19
293 8 -19
294 8 -19
295 8 -19
296 8 -19
297 8 -19
298 8 -19
299 -28 -2
300 -28 -2
301 -28 -2
302 -28 -2
303 -28 -2
304 -28 -2
305 -25 16
306 -25 16
307 -25 16
308 -25 16
309 -25 16
310 -25 16
311 -11 -1
312 -11 -1
313 -11 -1
314 -11 -1
315 -11 -1
316 -11 -1
317 14 -2
318 14 -2
319 14 -2
320 14 -2
321 14 -2
322 14 -2
323 15 17
324 15 17
325 15 17
326 15 17
327 15 17
328 27 1
329 27 1
330 27 1
331 27 1
332 27 1
333 27 1
334 27 1
335 -30 30
336 -30 30
337 -30 30
338 -30 30
339 -30 30
340 -30 30
341 -30 30
342 -30 30
343 -34 -15
344 -34 -15
345 -34 -15
346 -34 -15
347 -34 -15
348 -34 -15
349 -34 -15
350 -34 -15
351 25 -13
352 25 -13
353 25 -13
354 25 -13
355 25 -13
356 0 20
357 0 20
358 0 20
359 0 20
360 0 20
361 0 20
362 0 20
363 30 24
364 30 24
365 30 24
366 30 24
367 30 24
368 30 24
369 30 24
370 24 -36
371 24 -36
372 24 -36
373 24 -36
374 24 -36
375 24 -36
376 -4 -34
377 -4 -34
378 -4 -34
379 -4 -34
380 -4 -34
381 -4 -34
382 -4 -34
383 -10 -20
384 -10 -20
385 -10 -20
386 -10 -20
387 -10 -20
388 -20 -10
389 -20 -10
390 -20 -10
391 -20 -10
392 -20 -10
393 -25 -35
394 -25 -35
395 -25 -35
396 -25 -35
397 -25 -35
398 10 30
399 10 30
400 10 30
401 10 30
402 10 30
403 10 30
404 17 32
405 17 32
406 17 32
407 17 32
408 17 32
409 17 32
410 17 32
411 17 32
412 17 32
413 5 2
414 5 2
415 5 2
416 5 2
417 5 2
418 5 2
419 -2 -7
420 -2 -7
421 -2 -7
422 -2 -7
423 -2 -7
424 10 -36
425 10 -36
426 10 -36
427 10 -36
428 10 -36
429 10 -36
430 10 -36
431 10 -36
432 10 -36
433 26 -32
434 26 -32
435 26 -32
436 26 -32
437 26 -32
438 26 -32
439 26 -32
440 19 -35
441 19 -35
442 19 -35
443 19 -35
444 19 -35
445 19 -35
446 19 -35
447 19 -35
448 -5 20
449 -5 20
450 -5 20
451 -5 20
452 -5 20
453 -5 20
454 -5 20
455 -13 -16
456 -13 -16
457 -13 -16
458 -13 -16
459 -13 -16
460 -13 -16
461 0 -20
462 0 -20
463 0 -20
464 0 -20
465 0 -20
466 0 -20
467 0 -20
468 0 -20
469 0 -20
470 0 -3
471 0 -3
472 0 -3
473 0 -3
DEMAND_SECTION
1 0
2 20
3 20
4 20
5 20
6 5
7 1
8 20
9 20
10 20
11 10
12 5
13 1
14 1
15 20
16 20
17 20
18 10
19 1
20 1
21 1
22 1
23 20
24 20
25 20
26 20
27 20
28 20
29 20
30 20
31 5
32 1
33 1
34 20
35 20
36 20
37 20
38 5
39 1
40 1
41 20
42 20
43 20
44 10
45 5
46 1
47 1
48 1
49 1
50 20
51 20
52 20
53 10
54 1
55 1
56 20
57 20
58 20
59 10
60 1
61 1
62 1
63 20
64 20
65 20
66 10
67 20
68 20
69 20
70 20
71 5
72 20
73 20
74 20
75 10
76 5
77 1
78 1
79 20
80 20
81 20
82 10
83 5
84 1
85 1
86 1
87 1
88 20
89 20
90 20
91 20
92 20
93 20
94 20
95 20
96 1
97 1
98 1
99 20
100 20
101 20
102 10
103 5
104 20
105 20
106 20
107 10
108 1
109 20
110 20
111 20
112 20
113 20
114 20
115 20
116 20
117 5
118 1
119 20
120 20
121 20
122 20
123 20
124 20
125 20
126 10
127 1
128 20
129 20
130 20
131 20
132 1
133 1
134 20
135 20
136 20
137 20
138 1
139 1
140 20
141 20
142 20
143 20
144 1
145 20
146 20
147 20
148 20
149 5
150 20
151 20
152 20
153 20
154 1
155 1
156 1
157 1
158 20
159 20
160 20
161 10
162 20
163 20
164 20
165 20
166 5
167 20
168 20
169 20
170 10
171 1
172 1
173 20
174 20
175 20
176 10
177 1
178 20
179 20
180 20
181 20
182 5
183 1
184 20
185 20
186 20
187 20
188 5
189 20
190 20
191 20
192 20
193 5
194 1
195 20
196 20
197 20
198 10
199 1
200 1
201 1
202 1
203 20
204 20
205 20
206 20
207 5
208 1
209 20
210 20
211 20
212 10
213 5
214 1
215 1
216 1
217 1
218 20
219 20
220 20
221 20
222 5
223 20
224 20
225 20
226 10
227 5
228 1
229 1
230 1
231 1
232 20
233 20
234 20
235 10
236 5
237 1
238 1
239 1
240 1
241 20
242 20
243 20
244 20
245 5
246 1
247 20
248 20
249 20
250 10
251 1
252 1
253 1
254 20
255 20
256 20
257 10
258 20
259 20
260 20
261 20
262 1
263 1
264 20
265 20
266 20
267 20
268 1
269 1
270 20
271 20
272 20
273 20
274 5
275 1
276 1
277 20
278 20
279 20
280 10
281 5
282 20
283 20
284 20
285 10
286 5
287 1
288 1
289 1
290 1
291 20
292 20
293 20
294 10
295 5
296 1
297 1
298 1
299 20
300 20
301 20
302 20
303 5
304 1
305 20
306 20
307 20
308 20
309 1
310 1
311 20
312 20
313 20
314 20
315 1
316 1
317 20
318 20
319 20
320 20
321 1
322 1
323 20
324 20
325 20
326 10
327 1
328 20
329 20
330 20
331 20
332 5
333 1
334 1
335 20
336 20
337 20
338 20
339 1
340 1
341 1
342 1
343 20
344 20
345 20
346 20
347 1
348 1
349 1
350 1
351 20
352 20
353 20
354 10
355 5
356 20
357 20
358 20
359 20
360 1
361 1
362 1
363 20
364 20
365 20
366 10
367 5
368 1
369 1
370 20
371 20
372 20
373 10
374 5
375 1
376 20
377 20
378 20
379 20
380 5
381 1
382 1
383 20
384 20
385 20
386 10
387 5
388 20
389 20
390 20
391 10
392 5
393 20
394 20
395 20
396 10
397 5
398 20
399 20
400 20
401 10
402 5
403 1
404 20
405 20
406 20
407 10
408 5
409 1
410 1
411 1
412 1
413 20
414 20
415 20
416 20
417 5
418 1
419 20
420 20
421 20
422 10
423 1
424 20
425 20
426 20
427 20
428 5
429 1
430 1
431 1
432 1
433 20
434 20
435 20
436 20
437 5
438 1
439 1
440 20
441 20
442 20
443 20
444 5
445 1
446 1
447 1
448 20
449 20
450 20
451 20
452 5
453 1
454 1
455 20
456 20
457 20
458 20
459 5
460 1
461 20
462 20
463 20
464 20
465 5
466 1
467 1
468 1
469 1
470 20
471 20
472 20
473 10
DEPOT_SECTION
1
-1
EOF