Normalized Data/p02_7090_tsplib0_normalized_split0.sol
472 -1 2 260 259 258 -4 392 396 393 394 395 -5 6 3 254 253 256 255 -7 10 9 8 421 420 -17 18 21 19 20 14 16 15 104 107 -25 23 24 22 471 -27 29 28 26 292 -31 32 30 436 438 433 437 434 435 432 221 -33 35 34 36 418 -39 37 38 193 190 191 189 188 192 -47 45 46 48 42 40 41 44 43 414 -49 54 51 50 279 280 195 200 -53 52 115 117 112 113 116 114 -55 144 147 146 145 -57 61 60 58 307 308 305 309 306 187 -59 56 233 239 236 234 238 232 235 237 231 -66 408 411 409 407 410 406 404 403 405 -68 67 69 70 325 326 323 -74 73 71 72 103 106 -76 75 77 148 339 337 338 336 334 340 341 335 -84 85 81 82 79 78 80 86 83 159 -87 365 363 364 367 362 368 366 -90 89 88 322 324 -91 94 218 217 220 -92 95 97 96 350 351 354 353 352 -93 119 120 121 118 -98 300 301 298 299 -100 102 101 99 388 391 387 -105 186 185 183 184 -109 110 108 111 304 -126 125 122 123 124 467 462 464 468 466 465 -127 132 131 129 130 128 386 385 -135 134 136 133 389 -138 137 343 342 344 349 345 348 347 346 390 -139 143 140 142 141 302 303 -153 156 155 152 151 149 150 154 -157 158 270 271 272 -160 333 332 331 329 328 330 327 -164 162 161 163 461 -171 170 167 166 169 168 273 274 275 269 -176 430 431 428 427 423 426 424 425 429 284 -181 182 178 177 179 180 451 453 452 -196 194 277 276 278 -201 199 198 197 318 321 319 316 317 320 -206 203 204 205 202 207 416 417 -213 210 209 211 208 291 297 294 296 -214 216 212 215 440 446 441 443 442 439 444 445 -219 371 373 370 369 374 372 -223 227 230 229 402 401 400 397 398 399 -226 225 228 224 222 356 355 359 -242 243 240 241 245 244 -252 248 246 247 249 250 251 261 262 257 -267 263 264 266 265 268 -286 287 285 288 289 283 282 281 290 293 295 -314 312 311 310 313 315 -358 447 448 449 450 -360 63 65 64 62 357 361 -377 375 376 380 378 379 381 165 13 12 11 422 -383 382 384 460 463 -415 412 413 470 469 -419 175 172 174 173 472 -455 456 454 459 457 458 0 





OBJ=
3269.517
BEST_KNOWN=
0.000